p cnf 168 632
-1 -2 0
-1 -3 0
-1 -4 0
-1 -5 0
-1 -6 0
-2 -3 0
-2 -4 0
-2 -5 0
-2 -6 0
-3 -4 0
-3 -5 0
-3 -6 0
-4 -5 0
-4 -6 0
-5 -6 0
-7 -8 0
-7 -9 0
-7 -10 0
-7 -11 0
-7 -12 0
-8 -9 0
-8 -10 0
-8 -11 0
-8 -12 0
-9 -10 0
-9 -11 0
-9 -12 0
-10 -11 0
-10 -12 0
-11 -12 0
-13 -14 0
-13 -15 0
-13 -16 0
-13 -17 0
-13 -18 0
-14 -15 0
-14 -16 0
-14 -17 0
-14 -18 0
-15 -16 0
-15 -17 0
-15 -18 0
-16 -17 0
-16 -18 0
-17 -18 0
-19 -20 0
-19 -21 0
-19 -22 0
-19 -23 0
-19 -24 0
-20 -21 0
-20 -22 0
-20 -23 0
-20 -24 0
-21 -22 0
-21 -23 0
-21 -24 0
-22 -23 0
-22 -24 0
-23 -24 0
-25 -26 0
-25 -27 0
-25 -28 0
-25 -29 0
-25 -30 0
-26 -27 0
-26 -28 0
-26 -29 0
-26 -30 0
-27 -28 0
-27 -29 0
-27 -30 0
-28 -29 0
-28 -30 0
-29 -30 0
-31 -32 0
-31 -33 0
-31 -34 0
-31 -35 0
-31 -36 0
-32 -33 0
-32 -34 0
-32 -35 0
-32 -36 0
-33 -34 0
-33 -35 0
-33 -36 0
-34 -35 0
-34 -36 0
-35 -36 0
-37 -38 0
-37 -39 0
-37 -40 0
-37 -41 0
-37 -42 0
-38 -39 0
-38 -40 0
-38 -41 0
-38 -42 0
-39 -40 0
-39 -41 0
-39 -42 0
-40 -41 0
-40 -42 0
-41 -42 0
-43 -44 0
-43 -45 0
-43 -46 0
-43 -47 0
-43 -48 0
-44 -45 0
-44 -46 0
-44 -47 0
-44 -48 0
-45 -46 0
-45 -47 0
-45 -48 0
-46 -47 0
-46 -48 0
-47 -48 0
-49 -50 0
-49 -51 0
-49 -52 0
-49 -53 0
-49 -54 0
-50 -51 0
-50 -52 0
-50 -53 0
-50 -54 0
-51 -52 0
-51 -53 0
-51 -54 0
-52 -53 0
-52 -54 0
-53 -54 0
-55 -56 0
-55 -57 0
-55 -58 0
-55 -59 0
-55 -60 0
-56 -57 0
-56 -58 0
-56 -59 0
-56 -60 0
-57 -58 0
-57 -59 0
-57 -60 0
-58 -59 0
-58 -60 0
-59 -60 0
-61 -62 0
-61 -63 0
-61 -64 0
-61 -65 0
-61 -66 0
-62 -63 0
-62 -64 0
-62 -65 0
-62 -66 0
-63 -64 0
-63 -65 0
-63 -66 0
-64 -65 0
-64 -66 0
-65 -66 0
-67 -68 0
-67 -69 0
-67 -70 0
-67 -71 0
-67 -72 0
-68 -69 0
-68 -70 0
-68 -71 0
-68 -72 0
-69 -70 0
-69 -71 0
-69 -72 0
-70 -71 0
-70 -72 0
-71 -72 0
-73 -74 0
-73 -75 0
-73 -76 0
-73 -77 0
-73 -78 0
-74 -75 0
-74 -76 0
-74 -77 0
-74 -78 0
-75 -76 0
-75 -77 0
-75 -78 0
-76 -77 0
-76 -78 0
-77 -78 0
-79 -80 0
-79 -81 0
-79 -82 0
-79 -83 0
-79 -84 0
-80 -81 0
-80 -82 0
-80 -83 0
-80 -84 0
-81 -82 0
-81 -83 0
-81 -84 0
-82 -83 0
-82 -84 0
-83 -84 0
-85 -86 0
-85 -87 0
-85 -88 0
-85 -89 0
-85 -90 0
-86 -87 0
-86 -88 0
-86 -89 0
-86 -90 0
-87 -88 0
-87 -89 0
-87 -90 0
-88 -89 0
-88 -90 0
-89 -90 0
-91 -92 0
-91 -93 0
-91 -94 0
-91 -95 0
-91 -96 0
-92 -93 0
-92 -94 0
-92 -95 0
-92 -96 0
-93 -94 0
-93 -95 0
-93 -96 0
-94 -95 0
-94 -96 0
-95 -96 0
-97 -98 0
-97 -99 0
-97 -100 0
-97 -101 0
-97 -102 0
-98 -99 0
-98 -100 0
-98 -101 0
-98 -102 0
-99 -100 0
-99 -101 0
-99 -102 0
-100 -101 0
-100 -102 0
-101 -102 0
-103 -104 0
-103 -105 0
-103 -106 0
-103 -107 0
-103 -108 0
-104 -105 0
-104 -106 0
-104 -107 0
-104 -108 0
-105 -106 0
-105 -107 0
-105 -108 0
-106 -107 0
-106 -108 0
-107 -108 0
-109 -110 0
-109 -111 0
-109 -112 0
-109 -113 0
-109 -114 0
-110 -111 0
-110 -112 0
-110 -113 0
-110 -114 0
-111 -112 0
-111 -113 0
-111 -114 0
-112 -113 0
-112 -114 0
-113 -114 0
-115 -116 0
-115 -117 0
-115 -118 0
-115 -119 0
-115 -120 0
-116 -117 0
-116 -118 0
-116 -119 0
-116 -120 0
-117 -118 0
-117 -119 0
-117 -120 0
-118 -119 0
-118 -120 0
-119 -120 0
-121 -122 0
-121 -123 0
-121 -124 0
-121 -125 0
-121 -126 0
-122 -123 0
-122 -124 0
-122 -125 0
-122 -126 0
-123 -124 0
-123 -125 0
-123 -126 0
-124 -125 0
-124 -126 0
-125 -126 0
-127 -128 0
-127 -129 0
-128 -129 0
-130 -131 0
-130 -132 0
-131 -132 0
-133 -134 0
-133 -135 0
-134 -135 0
-136 -137 0
-136 -138 0
-137 -138 0
-139 -140 0
-139 -141 0
-140 -141 0
-142 -143 0
-142 -144 0
-143 -144 0
-145 -146 0
-145 -147 0
-146 -147 0
-148 -149 0
-148 -150 0
-149 -150 0
-151 -152 0
-151 -153 0
-152 -153 0
-154 -155 0
-154 -156 0
-155 -156 0
-157 -158 0
-157 -159 0
-158 -159 0
-160 -161 0
-160 -162 0
-161 -162 0
-163 -164 0
-163 -165 0
-164 -165 0
-166 -167 0
-166 -168 0
-167 -168 0
-3 -7 0
-3 -8 0
-4 -7 0
-4 -8 0
-5 -7 0
-5 -8 0
-6 -7 0
-6 -8 0
-5 -9 0
-5 -10 0
-6 -9 0
-6 -10 0
-9 -13 0
-9 -14 0
-10 -13 0
-10 -14 0
-11 -13 0
-11 -14 0
-12 -13 0
-12 -14 0
-11 -15 0
-11 -16 0
-12 -15 0
-12 -16 0
-15 -19 0
-15 -20 0
-16 -19 0
-16 -20 0
-17 -19 0
-17 -20 0
-18 -19 0
-18 -20 0
-17 -21 0
-17 -22 0
-18 -21 0
-18 -22 0
-21 -25 0
-21 -26 0
-22 -25 0
-22 -26 0
-23 -25 0
-23 -26 0
-24 -25 0
-24 -26 0
-23 -27 0
-23 -28 0
-24 -27 0
-24 -28 0
-27 -31 0
-27 -32 0
-28 -31 0
-28 -32 0
-29 -31 0
-29 -32 0
-30 -31 0
-30 -32 0
-29 -33 0
-29 -34 0
-30 -33 0
-30 -34 0
-33 -37 0
-33 -38 0
-34 -37 0
-34 -38 0
-35 -37 0
-35 -38 0
-36 -37 0
-36 -38 0
-35 -39 0
-35 -40 0
-36 -39 0
-36 -40 0
-45 -49 0
-45 -50 0
-46 -49 0
-46 -50 0
-47 -49 0
-47 -50 0
-48 -49 0
-48 -50 0
-47 -51 0
-47 -52 0
-48 -51 0
-48 -52 0
-51 -55 0
-51 -56 0
-52 -55 0
-52 -56 0
-53 -55 0
-53 -56 0
-54 -55 0
-54 -56 0
-53 -57 0
-53 -58 0
-54 -57 0
-54 -58 0
-57 -61 0
-57 -62 0
-58 -61 0
-58 -62 0
-59 -61 0
-59 -62 0
-60 -61 0
-60 -62 0
-59 -63 0
-59 -64 0
-60 -63 0
-60 -64 0
-63 -67 0
-63 -68 0
-64 -67 0
-64 -68 0
-65 -67 0
-65 -68 0
-66 -67 0
-66 -68 0
-65 -69 0
-65 -70 0
-66 -69 0
-66 -70 0
-69 -73 0
-69 -74 0
-70 -73 0
-70 -74 0
-71 -73 0
-71 -74 0
-72 -73 0
-72 -74 0
-71 -75 0
-71 -76 0
-72 -75 0
-72 -76 0
-75 -79 0
-75 -80 0
-76 -79 0
-76 -80 0
-77 -79 0
-77 -80 0
-78 -79 0
-78 -80 0
-77 -81 0
-77 -82 0
-78 -81 0
-78 -82 0
-87 -91 0
-87 -92 0
-88 -91 0
-88 -92 0
-89 -91 0
-89 -92 0
-90 -91 0
-90 -92 0
-89 -93 0
-89 -94 0
-90 -93 0
-90 -94 0
-93 -97 0
-93 -98 0
-94 -97 0
-94 -98 0
-95 -97 0
-95 -98 0
-96 -97 0
-96 -98 0
-95 -99 0
-95 -100 0
-96 -99 0
-96 -100 0
-99 -103 0
-99 -104 0
-100 -103 0
-100 -104 0
-101 -103 0
-101 -104 0
-102 -103 0
-102 -104 0
-101 -105 0
-101 -106 0
-102 -105 0
-102 -106 0
-105 -109 0
-105 -110 0
-106 -109 0
-106 -110 0
-107 -109 0
-107 -110 0
-108 -109 0
-108 -110 0
-107 -111 0
-107 -112 0
-108 -111 0
-108 -112 0
-111 -115 0
-111 -116 0
-112 -115 0
-112 -116 0
-113 -115 0
-113 -116 0
-114 -115 0
-114 -116 0
-113 -117 0
-113 -118 0
-114 -117 0
-114 -118 0
-117 -121 0
-117 -122 0
-118 -121 0
-118 -122 0
-119 -121 0
-119 -122 0
-120 -121 0
-120 -122 0
-119 -123 0
-119 -124 0
-120 -123 0
-120 -124 0
-128 -130 0
-129 -130 0
-129 -131 0
-131 -133 0
-132 -133 0
-132 -134 0
-134 -136 0
-135 -136 0
-135 -137 0
-137 -139 0
-138 -139 0
-138 -140 0
-140 -142 0
-141 -142 0
-141 -143 0
-143 -145 0
-144 -145 0
-144 -146 0
-149 -151 0
-150 -151 0
-150 -152 0
-152 -154 0
-153 -154 0
-153 -155 0
-155 -157 0
-156 -157 0
-156 -158 0
-158 -160 0
-159 -160 0
-159 -161 0
-161 -163 0
-162 -163 0
-162 -164 0
-164 -166 0
-165 -166 0
-165 -167 0
148 127 86 44 2 0
87 45 3 0
149 128 88 46 4 0
91 49 7 0
152 131 94 52 10 0
153 132 96 54 12 0
155 134 100 58 16 0
101 59 17 0
156 135 102 60 18 0
157 136 104 62 20 0
159 138 108 66 24 0
109 67 25 0
160 139 110 68 26 0
161 140 112 70 28 0
163 142 116 74 32 0
164 143 118 76 34 0
119 77 35 0
165 144 120 78 36 0
166 145 122 80 38 0
123 81 39 0
167 146 124 82 40 0
125 83 41 0
168 147 126 84 42 0
